NAME: HYDROXYPHENYLLACTATE M-H
RETENTIONTIME: 0
PRECURSORMZ: 181.050994873047
IONMODE: Negative
COLLISIONENERGY: 0
FORMULA: 
SMILES: OC(CC1=CC=C(O)C=C1)C(O)=O
INCHIKEY: 
INCHI: "InChI=1S/C9H10O4/c10-7-3-1-6(2-4-7)5-8(11)9(12)13/h1-4,8,10-11H,5H2,(H,12,13)"
SPECTRUMTYPE: 
AUTHORS: 
INSTRUMENT: ESI-Orbitrap
INSTRUMENTTYPE: 
LICENSE: 
MSLEVEL: 
CHARGE=-1
MSLEVEL=2
SEQ=*..*
ORGANISM=GNPS-MSMLS
PI=Dorrestein
DATACOLLECTOR=Fernando Vargas
INCHIAUX=N/A
PUBMED=na
SUBMITUSER=mpanitchpakdi
LIBRARYQUALITY=1
SPECTRUMID=CCMSLIB00005463540
COMMENT: 
Num Peaks:60
57.993649	2301.143799
58.669075	2842.239258
68.020729	2971.482422
70.564552	2513.018311
72.878845	2689.933105
72.975563	3853.803467
72.991684	718360.75
73.995079	12563.180664
75.007271	3571.86499
77.404732	2682.560059
81.033073	4734.676758
81.774086	2626.58374
92.918541	5914.78418
92.992386	76993.929688
93.033134	41289.710938
99.857903	2497.19165
101.239021	2791.706299
105.356773	3432.287598
105.568924	3190.02417
106.041046	4729.494629
107.048927	59435.523438
109.02813	5910.954102
112.984322	45298.136719
117.033318	5821.436035
118.203209	2873.571289
119.015236	4521.074707
119.048965	1540851.625
119.084404	5451.431152
120.052269	105341.335938
121.028297	18331.339844
121.108994	2778.724121
133.028061	3424.031738
134.031036	5080.327637
134.036118	83965.585938
134.04097	5610.906738
134.998993	3203.721924
135.00325	4971.822266
135.043961	2215514.25
135.087067	6798.085938
135.733582	2684.214844
136.047302	150738.0625
136.982407	174019.640625
137.985413	4226.324707
142.010696	3147.537842
147.589081	4205.175781
148.523163	5009.87207
152.916489	5558.07959
162.985809	8731.754883
163.039062	3223728.5
163.096542	9567.081055
164.042374	236031.921875
172.091812	3181.887695
179.034134	8333.552734
180.911652	4656.253906
180.972595	24925.556641
180.987289	4149.787598
181.049759	1808479.75
181.116394	6630.770508
182.053116	139884.703125
200.736801	3475.613037

Name: Benzene, 1,2,4-trichloro-
InChIKey: PBKONEOXTCPAFI-UHFFFAOYSA-N
Synon: Hostetex L-PEC
Synon: 1,2,4-Trichlorobenzene
Synon: 1,2,4-Trichlorobenzol
Synon: unsym-Trichlorobenzene
Synon: Trojchlorobenzen
Synon: 1,2,5-Trichlorobenzene
Synon: 1,3,4-Trichlorobenzene
Synon: Hipochem GM
Synon: NSC 406697
Retention_index: SemiStdNP=1193/6/20 StdNP=1160/13/35 StdPolar=1659/13/11
Formula: C6H3Cl3
MW: 180
ExactMass: 179.930033
CAS#: 120-82-1;  NIST#: 107466
DB#: 167562
Comments: Chuck Anderson, Aldrich Chemical Co.
Num Peaks: 90
12 0; 24 0; 25 2; 26 4; 27 0; 
35 19; 36 26; 37 120; 38 49; 39 5; 
47 25; 48 11; 49 60; 50 104; 51 13; 
52 0; 54 42; 55 43; 56 9; 59 1; 
60 26; 61 37; 62 24; 63 12; 64 0; 
70 0; 71 8; 72 58; 73 94; 74 193; 
75 93; 76 5; 77 0; 78 0; 82 1; 
83 4; 84 59; 85 27; 86 21; 87 8; 
88 0; 94 2; 95 3; 96 6; 97 9; 
98 2; 99 2; 106 1; 107 12; 108 33; 
109 267; 110 54; 111 85; 112 13; 113 0; 
118 8; 119 11; 120 14; 121 8; 122 6; 
123 1; 124 0; 130 0; 131 5; 132 1; 
133 5; 134 0; 135 1; 141 0; 142 0; 
143 9; 144 43; 145 449; 146 52; 147 281; 
148 20; 149 47; 150 2; 154 1; 156 1; 
158 0; 179 1; 180 999; 181 68; 182 972; 
183 63; 184 356; 185 21; 186 41; 187 2;

Name: JWH 081
InChIKey: UBMPKJKGUQDHRM-UHFFFAOYSA-N
Formula: C25H25NO2
MW: 371
ExactMass: 371.18853
CASNO: 210179467
Comment: Item #10579  Lot #0427775
Num peaks: 331
  40  147;  41   57;  42   13;  43   52;  44   30;
  46    1;  50    1;  51    8;  52    6;  53    1;
  54    4;  55    9;  56    2;  58    2;  59   10;
  60    2;  63    8;  64    4;  65    1;  66    1;
  67    3;  68    3;  69    1;  70    1;  73   36;
  74    7;  75   15;  76    6;  77   16;  78    9;
  79    3;  81    8;  82    1;  83    1;  85    2;
  86    1;  87    4;  88   45;  89   29;  90    5;
  91   21;  92    4;  93    3;  94    3;  95    3;
  96    6;  97    9;  98    1;  99    2; 100    4;
 101   24; 102   47; 103   27; 104    3; 105    9;
 106   16; 107   13; 108   11; 109    5; 112    2;
 113   67; 114  254; 115   74; 116  143; 117   10;
 118    6; 119   30; 120   28; 121   20; 122   18;
 125    4; 126   45; 127  119; 128   79; 129   47;
 130   59; 131    6; 132    4; 133    9; 134    1;
 135   20; 136   33; 137    3; 138    2; 139    2;
 140    3; 141   21; 142   50; 143   22; 144  407;
 145   22; 146    2; 147   29; 148   11; 149   24;
 150   19; 151    5; 152    6; 153    5; 154   14;
 155   18; 156   39; 157  143; 158   26; 159    5;
 161    3; 162    4; 163   13; 164    4; 165   16;
 166    2; 167    1; 168    3; 169    6; 170   28;
 171   28; 172    6; 173    2; 174    4; 175    1;
 176    7; 177   34; 178    5; 179    1; 180    4;
 182    5; 183   17; 184   15; 185  236; 186   76;
 187   12; 188    2; 189    3; 190    2; 191   10;
 192    3; 194    5; 195    8; 197  155; 198   24;
 199    7; 200   14; 201   46; 202   36; 203   22;
 204    5; 205    3; 207   52; 208   32; 209   11;
 210    4; 211   22; 212    3; 213   23; 214  506;
 215   42; 216    6; 217    6; 218    3; 219    2;
 220    1; 221    2; 222    3; 224    4; 225    4;
 226   14; 227   26; 228   53; 229   20; 230   17;
 231    6; 233    3; 236    1; 238    8; 239   13;
 240   52; 241  150; 242   62; 243   17; 244   14;
 245    4; 247    1; 249   11; 250    3; 251    6;
 252    3; 253   45; 254   89; 255   28; 256   39;
 257   82; 258   26; 262    2; 265    9; 266    2;
 267   25; 268    8; 269   27; 270   84; 271   40;
 272   29; 273   12; 278    1; 279    2; 281   21;
 282   26; 283   50; 284   45; 285   60; 286   82;
 287    7; 288    3; 289    1; 291    1; 294    2;
 295    1; 296    6; 297   13; 298   65; 299   36;
 300  176; 301   38; 302    6; 303    3; 305    2;
 306    3; 308    2; 310    2; 311    3; 312    7;
 313    9; 314  473; 315  118; 316    9; 322    7;
 323    2; 324    4; 325    4; 326    3; 327    5;
 328   27; 329   13; 331    7; 333    1; 334    2;
 338    2; 339   11; 340   29; 341   33; 342    7;
 343    5; 344    7; 346    1; 347    2; 348    3;
 352   28; 353    3; 354  507; 355  127; 356  224;
 357   27; 358    2; 365    1; 367    3; 369    2;
 370  497; 371  999; 372  121; 373   12; 374    3;
 376    2; 378    1; 379    1; 380    1; 381    2;
 382    1; 383    2; 386    2; 389    2; 391    3;
 399    1; 400    2; 401    9; 402    3; 403    4;
 406    1; 407    3; 409    2; 410    1; 413    4;
 415    3; 419    1; 425    2; 426    2; 428    1;
 429   14; 430    6; 431    2; 432    2; 437    2;
 451    1; 457    1; 458    3; 475    2; 477    1;
 479    3; 484    1; 487    1; 488    2; 501    2;
 503    2; 510    1; 514    1; 517    2; 522    1;
 526    2; 528    2; 536    1; 544    2; 549    2;
 552    3; 554    2; 555    1; 556    1; 568    1;
 570    2; 571    4; 574    1; 586    2; 599    1;
 600    2;
