Name: S-Carboxymethyl-L-cysteine, 3TMS
Instrument_type: GC Orbitrap
Instrument: Q Exactive GC Orbitrap
Sample_inlet: GC
Ionization: EI
Spectrum_type: in-source
InChIKey: ZNZLJUMJKFGIEZ-LBPRGKRZSA-N
Retention_index: 1817
Formula: C14H33NO4SSi3
MW: 395
ExactMass: 395.143808
DB#: 25
Comments: ColumnType="Semi-standard non-polar, TG-5SILMSwith10mGuard, 30mx0.25mmx0.25um" CarrierGasFlowRate="1.0 mL/min" CarrierGasType="He" RIDataType="Kovats" GradientProgramType="Ramp" StartTemp="60 C" EndTemp="325 C" SourceTemp="250 C" TransferlineTemp="290 C" Resolution="60,000"    Contributor="Thermo Fisher Scientific"   Native_Metabolite_PubChemCID="193653" Native_Metabolite_CAS#="638-23-3" Native_Metabolite_InChIKey="GBFLZEXEOZUWRN-VKHMYHEASA-N" Category="Amino Acid"
Num Peaks: 248
52.57499 1
54.52446 14
54.52531 3
54.77436 1
54.77527 1
55.02368 1
56.58534 4
58.02332 3
58.76466 5
58.76563 2
58.99501 2
59.03116 10
60.00261 1
61.01045 6
61.34314 2
69.52501 3
69.52618 1
70.02877 2
70.92727 1
72.03898 5
73.04440 3
73.04486 2
73.04680 373
73.04810 10
74.00588 4
74.04208 2
74.04636 19
74.04828 1
74.05014 12
74.97193 1
75.02607 46
75.02804 2
75.04364 13
75.04556 1
75.04974 1
76.02127 1
76.02564 2
76.02937 1
77.00531 5
77.02288 2
78.98455 1
83.03115 1
85.04682 1
86.042 2
86.98994 1
88.02154 4
91.05738 26
92.05260 1
93.05427 1
98.00591 2
98.04202 1
99.33669 1
100.05769 149
101.05511 1
101.05727 8
101.06110 7
101.06560 1
102.03691 1
102.05454 5
102.07339 4
103.00306 1
103.02105 1
103.05741 2
114.07336 8
115.00308 1
115.08118 20
115.99841 7
116.01644 4
116.02883 1
116.05264 2
116.08441 1
116.08903 7
117.01868 3
117.03664 5
117.07798 1
118.99806 9
128.05260 6
129.03662 9
130.01418 3
130.03189 25
130.05026 1
131.02196 35
131.03423 7
132.02144 2
132.02519 1
132.02968 12
133.01355 9
133.01839 1
133.04994 6
134.00902 4
134.02132 1
135.02925 3
137.00858 3
142.06836 2
142.92412 1
144.02972 4
144.04756 2
145.06802 1
146.00900 1
146.04536 118
146.06311 4
146.99301 21
147.04495 6
147.04872 6
147.05319 2
147.06552 123
148.02463 3
148.04152 7
148.06088 3
148.06516 12
148.06891 6
149.03778 2
149.0448 358
149.06229 7
150.04018 8
150.04436 36
150.04811 16
151.02408 17
151.04163 23
151.04848 2
152.02362 2
152.04120 1
153.00331 1
153.02101 1
158.08151 1
159.06552 1
159.07092 1
160.06096 3
161.00861 4
161.04495 3
162.07654 2
163.02429 3
163.06039 1
163.09682 37
164.05582 1
164.09639 4
164.10027 2
165.00354 4
165.09369 2
167.00127 1
167.05534 33
168.05060 3
168.05490 3
168.05881 1
169.03461 2
169.0522 2
172.02460 16
172.06075 13
172.07877 1
172.09706 2
173.02405 1
173.02820 1
173.06419 1
174.04025 4
174.05748 1
174.07639 7
175.02422 1
175.06043 1
177.03975 2
177.07665 1
179.03761 11
180.03717 1
181.03392 1
188.05594 8
188.09206 22
189.03987 4
189.07605 1
189.09111 2
190.03516 4
190.08864 2
190.10788 2
191.05516 1
193.01706 3
200.01955 8
202.07112 2
203.07915 10
204.06912 2
204.09958 6
205.04065 4
205.10761 3
206.06641 11
207.06894 10
213.06345 1
216.08704 33
217.09135 2
218.04181 1
218.08345 3
218.08597 3
218.09021 6
218.09270 5
218.10259 999
218.11516 6
218.16028 1
219.10193 70
219.10626 50
220.04028 36
220.06407 15
220.09952 65
220.10580 9
221.01175 14
221.03970 2
221.04472 1
221.04872 1
221.08424 13
221.10378 4
222.01117 1
222.03693 3
222.06059 1
222.08327 2
222.09616 1
223.08119 1
230.04858 1
231.11044 6
232.11833 39
233.11757 2
233.12289 2
234.08008 3
234.11528 3
235.06375 426
235.07799 2
236.06325 30
236.06769 17
237.04305 2
237.06030 44
238.05927 2
239.05676 2
239.09488 5
246.04356 5
246.07983 5
248.05902 3
262.07483 38
263.07324 3
264.07108 3
264.09064 1
278.10596 253
280.10233 27
280.11047 2
282.09869 1
290.06967 29
291.07077 3
292.06552 3
306.10086 2
309.08258 36
310.08237 6
311.07864 5
352.12476 4
380.11945 5
381.12058 1