Name: 2-Hydroxychalcone
Synon: $:00in-source
DB#: VF-NPL-LTQ000001
InChIKey: UDOOPSJCRMKSGL-ZHACJKMWSA-N
Precursor_type: M-H
Spectrum_type: MS2
PrecursorMZ: 223.12845079826587
Instrument_type: Linear Ion Trap
Instrument: Thermo Finnigan LTQ
Ion_mode: N
Collision_energy: 35
Formula: C15H12O2
MW: 224
ExactMass: 224.083729624
Comments: "InChI=InChI=1S/C15H12O2/c16-14-9-5-4-8-13(14)10-11-15(17)12-6-2-1-3-7-12/h1-11,16H/b11-10+" "computed SMILES=O=C(C=CC=1C=CC=CC1O)C=2C=CC=CC2" "raw filename=120_100_iTree_NEG_08042014_10.raw" "author=Arpana Vaniya" "source introduction=direct infusion" "source voltage=3.50 kV" "capillary temperature=275 C" "ion source=ESI Ion Max" "computed spectral entropy=0.08743674675113056" "computed normalized entropy=0.12614456092932025" "computed mass accuracy=233.03695283966962" "computed mass error=0.05199717426586403" "SPLASH=splash10-0002-0900000000-6fd327c02607c02c0e42" "submitter=Arpana Vaniya (University of California, Davis)" "MoNA Rating=3.846153846153846"
Num Peaks: 2
177.06 1.763028
195.05 100.000000


Name: (2-AMINOETHYL)PHOSPHONATE
Synon: $:00in-source
DB#: CCMSLIB00000578169
InChIKey: QQVDJLLNRSOCEL-UHFFFAOYSA-N
Precursor_type: [M-H]-
Spectrum_type: MS2
PrecursorMZ: 124.016
Instrument: Q-Exactive Plus
Ion_mode: N
Formula: C2H8NO3P
MW: 125
ExactMass: 125.02417974599999
Comments: "cas number=2041-14-7" "pubmed id=339" "SMILES=O=P(O)(O)CCN" "computed SMILES=C(CP(=O)(O)O)N" "computed InChI=InChI=1S/C2H8NO3P/c3-1-2-7(4,5)6/h1-3H2,(H2,4,5,6)" "ion source=LC-ESI" "compound source=Commercial standard" "exact mass=125.024" "charge state=0" "source file=IROA_PLATE_neg_2_B.mzXML" "origin=GNPS-EMBL-MCF" "author=Alexandrov Theodore, pphapale, Prasad" "computed mass accuracy=7.287333892219113" "computed mass error=-9.037459999774455E-4" "SPLASH=splash10-00fr-5900000000-71241086c94c831eda97" "submitter=GNPS Team (University of California, San Diego)" "MoNA Rating=4.090909090909091"
Num Peaks: 3
55.649189 0.660602
67.693985 0.748710
72.791397 1.174059


NAME: phenazine-1-carboxamide
PRECURSORMZ: 224.0
PRECURSORTYPE: M+H
FORMULA: C13H9N3O
Ontology:
INCHIKEY: KPZYYKDXZKFBQU-UHFFFAOYSA-N
INCHI: InChI=1S/C13H9N3O/c14-13(17)8-4-3-7-11-12(8)16-10-6-2-1-5-9(10)15-11/h1-7H,(H2,14,17)
SMILES: C1=CC=C2C(=C1)N=C3C=CC=C(C3=N2)C(=O)N
RETENTIONTIME: CCS:
IONMODE: Positive
INSTRUMENTTYPE: DI-ESI-Ion Trap
INSTRUMENT: Ion Trap
COLLISIONENERGY:
Comment: DB#=CCMSLIB00000006832; origin=GNPS
Num Peaks: 32
78.909088 0.066286
79.0 0.102231
79.090912 0.028708
79.36364 0.001307
79.454544 0.000295
79.727272 3e-06
79.818184 2e-06
109.909096 0.000642
110.0 0.022613
110.090912 0.090857
110.181816 0.117288
110.272728 0.039857
110.545456 0.00086
110.636368 0.000278
110.909096 1e-06
111.0 1e-06
118.0 0.04606
118.090912 0.098619
118.181824 0.047114
118.545456 0.000201
118.636368 1.2e-05
118.909096 1e-06
126.818184 0.002632
126.909096 0.014997
127.0 0.025161
127.090912 0.013442
127.36364 5e-06
127.454544 6.1e-05
127.545456 4e-06
137.0 0.028562
137.090912 0.110638
137.181824 0.125281